4886
9593
3124
3539
5084
8584
9327
8732
7883
5786
1368
6442
2339
1932
6418
9441
9151
9919
6365
5616
5900
6545
1609
7129
894
2912
8745
1913
5095
8415
6705
877
4381
999
1422
7591
2783
9159
7868
7529
5587
527
3217
2560
1747
8042
1613
2747
6597
2106
